0 2225
1 2119
2 1875
3 1792
4 1686
5 1643
6 1543
7 1524
8 1486
9 1433
10 1433
11 1428
12 1372
13 1337
14 1337
15 1285
16 1285
17 1278
18 1266
19 1264
20 1229
21 1229
22 1197
23 1197
24 1197
25 1186
26 1186
27 1171
28 1171
29 1160
30 1156
31 1152
32 1152
33 1145
34 1145
35 1145
36 1143
37 1143
38 1143
39 1136
40 1136
41 1136
42 1124
43 1124
44 1119
45 1119
46 1119
47 1119
48 1116
49 1116
50 1116
51 1110
52 1110
53 1109
54 1109
55 1106
56 1106
57 1092
58 1092
59 1092
60 1092
61 1091
62 1086
63 1086
64 1086
65 1086
66 1086
67 1086
68 1082
69 1080
70 1080
71 1080
72 1080
73 1079
74 1079
75 1076
76 1076
77 1076
78 1061
79 1061
80 1061
81 1061
82 1061
83 1060
84 1060
85 1057
86 1057
87 1048
88 1048
89 1048
90 1048
91 1048
92 1048
93 1047
94 1047
95 1047
96 1047
97 1047
98 1047
99 1042
100 1042
101 1042
102 1042
103 1042
104 1042
105 1042
106 1042
107 1037
108 1037
109 1037
110 1037
111 1037
112 1037
113 1037
114 1033
115 1033
116 1033
117 1033
118 1033
119 1022
120 1022
121 1022
122 1022
123 1022
124 1022
125 1022
126 1016
127 1016
128 1016
129 1016
130 1016
131 1016
132 1013
133 1013
134 1012
135 1012
136 1009
137 992
138 992
139 992
140 992
141 981
142 981
143 981
144 981
145 981
146 981
147 978
148 978
149 978
150 978
151 978
152 968
153 968
154 968
155 968
156 968
157 968
158 968
159 963
160 963
161 963
162 963
163 956
164 956
165 956
166 947
167 947
168 934
169 934
170 934
171 934
172 934
173 934
174 930
175 930
176 926
177 926
178 926
179 926
180 926
181 926
182 926
183 925
184 925
185 925
186 925
187 914
188 914
189 914
190 914
191 914
192 914
193 914
194 914
195 914
196 914
197 914
198 914
199 914
200 914
201 914
202 914
203 914
204 914
205 914
206 914
207 914
208 914
209 914
210 914
211 914
212 914
213 914
214 914
215 914
216 914
217 914
218 914
219 914
220 914
221 914
222 914
223 914
224 914
225 914
226 914
227 914
228 914
229 914
230 914
231 914
232 914
233 914
234 914
235 914
236 914
237 914
238 914
239 914
240 914
241 914
242 914
243 914
244 914
245 914
246 914
247 914
248 914
249 914
250 914
251 914
252 914
253 914
254 914
255 914
256 914
257 914
258 914
259 914
260 914
261 914
262 914
263 914
264 914
265 914
266 914
267 914
268 914
269 914
270 914
271 914
272 914
273 914
274 914
275 914
276 914
277 914
278 914
279 914
280 914
281 914
282 914
283 914
284 914
285 914
286 914
287 914
288 914
289 914
290 914
291 914
292 914
293 914
294 914
295 914
296 914
297 914
298 914
299 914
300 914
301 914
302 914
303 914
304 914
305 914
306 914
307 914
308 914
309 914
310 914
311 914
312 914
313 914
314 914
315 914
316 914
317 914
318 914
319 914
320 914
321 914
322 914
323 914
324 914
325 914
326 914
327 914
328 914
329 914
330 914
331 914
332 914
333 914
334 914
335 914
336 914
337 914
338 914
339 914
340 914
341 914
342 914
343 914
344 914
345 914
346 914
347 914
348 914
349 914
350 914
351 914
352 914
353 914
354 914
355 914
356 914
357 914
358 914
359 914
360 914
361 914
362 914
363 914
364 914
365 914
366 914
367 914
368 914
369 914
370 914
371 914
372 914
373 914
374 914
375 914
376 914
377 914
378 914
379 914
380 914
381 914
382 914
383 914
384 914
385 914
386 914
387 914
388 914
389 914
390 914
391 914
392 914
393 914
394 914
395 914
396 914
397 914
398 914
399 914
400 914
401 914
402 914
403 914
404 914
405 914
406 914
407 914
408 914
409 914
410 914
411 914
412 914
413 914
414 914
415 914
416 914
417 914
418 914
419 914
420 914
421 914
422 914
423 914
424 914
425 914
426 914
427 914
428 914
429 914
430 914
431 914
432 914
433 914
434 914
435 914
436 914
437 914
438 914
439 914
440 914
441 914
442 914
443 914
444 914
445 914
446 914
447 914
448 914
449 914
450 914
451 914
452 914
453 914
454 914
455 914
456 914
457 914
458 914
459 914
460 914
461 914
462 914
463 914
464 914
465 914
466 914
467 914
468 914
469 914
470 914
471 914
472 914
473 914
474 914
475 914
476 914
477 914
478 914
479 914
480 914
481 914
482 914
483 914
484 914
485 914
486 914
487 914
488 914
489 914
490 914
491 914
492 914
493 914
494 914
495 914
496 914
497 914
498 914
499 914
500 914
501 914
502 914
503 914
504 914
505 914
506 914
507 914
508 914
509 914
510 914
511 914
512 914
513 914
514 914
515 914
516 914
517 914
518 914
519 914
520 914
521 914
522 914
523 914
524 914
525 914
526 914
527 914
528 914
529 914
530 914
531 914
532 914
533 914
534 914
535 914
536 914
537 914
538 914
539 914
540 914
541 914
542 914
543 914
544 914
545 914
546 914
547 914
548 914
549 914
550 914
551 914
552 914
553 914
554 914
555 914
556 914
557 914
558 914
559 914
560 914
561 914
562 914
563 914
564 914
565 914
566 914
567 914
568 914
569 914
570 914
571 914
572 914
573 914
574 914
575 914
576 914
577 914
578 914
579 914
580 914
581 914
582 914
583 914
584 914
585 914
586 914
587 914
588 914
589 914
590 914
591 914
592 914
593 914
594 914
595 914
596 914
597 914
598 914
599 914
600 914
601 914
602 914
603 914
604 914
605 914
606 914
607 914
608 914
609 914
610 914
611 914
612 914
613 914
614 914
615 914
616 914
617 914
618 914
619 914
620 914
621 914
622 914
623 914
624 914
625 914
626 914
627 914
628 914
629 914
630 914
631 914
632 914
633 914
634 914
635 914
636 914
637 914
638 914
639 914
640 914
641 914
642 914
643 914
644 914
645 914
646 914
647 914
648 914
649 914
650 914
651 914
652 914
653 914
654 914
655 914
656 914
657 914
658 914
659 914
660 914
661 914
662 914
663 914
664 914
665 914
666 914
667 914
668 914
669 914
670 914
671 914
672 914
673 914
674 914
675 914
676 914
677 914
678 914
679 914
680 914
681 914
682 914
683 914
684 914
685 914
686 914
687 914
688 914
689 914
690 914
691 914
692 914
693 914
694 914
695 914
696 914
697 914
698 914
699 914
700 914
701 914
702 914
703 914
704 914
705 914
706 914
707 914
708 914
709 914
710 914
711 914
712 914
713 914
714 914
715 914
716 914
717 914
718 914
719 914
720 914
721 914
722 914
723 914
724 914
725 914
726 914
727 914
728 914
729 914
730 914
731 914
732 914
733 914
734 914
735 914
736 914
737 914
738 914
739 914
740 914
741 914
742 914
743 914
744 914
745 914
746 914
747 914
748 914
749 914
750 914
751 914
752 914
753 914
754 914
755 914
756 914
757 914
758 914
759 914
760 914
761 914
762 914
763 914
764 914
765 914
766 914
767 914
768 914
769 914
770 914
771 914
772 914
773 914
774 914
775 914
776 914
777 914
778 914
779 914
780 914
781 914
782 914
783 914
784 914
785 914
786 914
787 914
788 914
789 914
790 914
791 914
792 914
793 914
794 914
795 914
796 914
797 914
798 914
799 914
800 914
801 914
802 914
803 914
804 914
805 914
806 914
807 914
808 914
809 914
810 914
811 914
812 914
813 914
814 914
815 914
816 914
817 914
818 914
819 914
820 914
821 914
822 914
823 914
824 914
825 914
826 914
827 914
828 914
829 914
830 914
831 914
832 914
833 914
834 914
835 914
836 914
837 914
838 914
839 914
840 914
841 914
842 914
843 914
844 914
845 914
846 914
847 914
848 914
849 914
850 914
851 914
852 914
853 914
854 914
855 914
856 914
857 914
858 914
859 914
860 914
861 914
862 914
863 914
864 914
865 914
866 914
867 914
868 914
869 914
870 914
871 914
872 914
873 914
874 914
875 914
876 914
877 914
878 914
879 914
880 914
881 914
882 914
883 914
884 914
885 914
886 914
887 914
888 914
889 914
890 914
891 914
892 914
893 914
894 914
895 914
896 914
897 914
898 914
899 914
900 914
901 914
902 914
903 914
904 914
905 914
906 914
907 914
908 914
909 914
910 914
911 914
912 914
913 914
914 914
915 914
916 914
917 914
918 914
919 914
920 914
921 914
922 914
923 914
924 914
925 914
926 914
927 914
928 914
929 914
930 914
931 914
932 914
933 914
934 914
935 914
936 914
937 914
938 914
939 914
940 914
941 914
942 914
943 914
944 914
945 914
946 914
947 914
948 914
949 914
950 914
951 914
952 914
953 914
954 914
955 914
956 914
957 914
958 914
959 914
960 914
961 914
962 914
963 914
964 914
965 914
966 914
967 914
968 914
969 914
970 914
971 914
972 914
973 914
974 914
975 914
976 914
977 914
978 914
979 914
980 914
981 914
982 914
983 914
984 914
985 914
986 914
987 914
988 914
989 914
990 914
991 914
992 914
993 914
994 914
995 914
996 914
997 914
998 914
999 914
Best: [[31,13,2,8,17],
       [27,7,4,3,24,5,29,15],
       [30,23,10,12,9,19,16,11,26],
       [25,28],
       [21,6,14,18,20,32,22]], fitness: 914
